tsp_instances/TSP50/instance87.tsp
NODE_COORD_SECTION
0 21 25
1 106 138
2 169 3
3 41 51
4 86 45
5 34 183
6 138 106
7 41 75
8 159 146
9 117 72
10 86 140
11 61 14
12 32 176
13 55 20
14 116 115
15 141 11
16 53 136
17 67 75
18 191 0
19 8 25
20 80 42
21 57 45
22 71 11
23 52 74
24 186 169
25 31 27
26 129 95
27 144 131
28 76 68
29 111 81
30 15 102
31 6 6
32 191 160
33 121 0
34 102 95
35 61 114
36 89 183
37 0 80
38 167 56
39 32 157
40 8 124
41 94 0
42 27 185
43 8 48
44 42 192
45 172 55
46 199 194
47 112 8
48 44 91
49 24 73
