tsp_instances/TSP50/instance87.opt.tour
TOUR_SECTION
1
26
14
12
23
42
48
34
16
3
19
46
39
10
30
35
36
17
11
2
15
27
7
28
9
33
25
47
37
45
6
43
13
40
41
31
38
50
8
49
24
18
29
5
21
22
4
44
20
32
-1